50 
300 
19.1 24.3 0 0
18.2 24 0 -85
12.6 24.9 -20 -100
14.4 28 20 -14
16.9 28.1 -20 -99
20.7 28.2 20 -18
12.5 26.6 20 -15
21.8 27.3 20 -11
12.5 22.6 20 -27
22.5 17 -30 -121
19.9 15 30 -25
14.9 15.1 -30 -124
11.5 18.6 -30 -71
12.4 29.8 30 -21
17.8 28.1 30 -13
9.1 29.8 40 -11
10 32.6 40 -17
13.9 33.1 -40 -70
19.95 10.3 40 -24
15.2 8 -40 -130
14.7 31.2 -50 -132
7.4 36.5 50 -21
21 25.5 50 -26
18 25.3 10 -22
19.5 24.7 -10 -137
21.4 21.8 -10 -64
16 21.4 -10 -92
18.65 26.2 10 -12
17.9 28.9 10 -24
14.3 19.9 -20 -107
17 19 20 -11
10.8 21 20 -11
15.7 23.7 -10 -71
